8 4 1 1 111111
15 2 1 3 4 2 2 3 7 4 5 2 2 3 4 3 2 2 2 4 7 1 4 2 1 2 2 2 1 3 3 3 1 1 1 2 1 1 3 3 1 1 7 1 3 3 2 1 6 4 5 2 3 1 4 5 2 3 5 4 7 1 3 6 
15 2 2 3 4 1 2 2 7 3 1 1 1 7 1 3 6 1 3 4 1 1 4 2 1 4 2 6 2 1 4 3 3 2 2 2 3 4 2 1 5 3 7 1 3 1 1 2 7 2 1 1 4 6 2 3 2 4 5 2 1 1 4 3 
15 1 1 5 1 1 5 1 1 2 2 1 4 2 6 1 1 4 1 4 7 2 1 4 3 6 2 1 6 4 1 1 1 1 1 1 7 2 1 5 3 5 2 3 6 4 7 2 3 7 4 2 2 2 3 4 1 1 2 5 
15 2 1 5 4 5 2 1 1 2 5 2 2 4 3 2 1 3 5 2 2 2 3 2 1 3 7 2 3 2 4 2 2 2 6 3 3 2 3 5 4 2 2 1 7 4 4 2 3 1 4 4 2 1 5 4 1 2 1 4 4 4 2 2 4 4 4 1 1 4 
15 2 2 6 4 4 2 1 3 3 1 1 1 2 1 2 5 1 4 4 2 2 2 4 6 2 2 7 4 3 2 1 6 4 2 2 2 2 3 1 1 2 3 2 1 5 2 7 1 1 2 2 2 7 4 6 2 1 7 3 3 1 4 3 
15 1 2 1 2 1 2 3 4 2 3 2 4 7 2 2 6 4 7 1 2 3 2 1 2 4 3 1 2 5 2 1 6 4 3 2 1 4 2 2 2 1 7 2 6 2 1 1 3 5 2 3 1 4 3 1 1 1 2 2 1 3 5 2 2 5 4 1 
15 1 3 4 2 1 1 2 7 1 3 3 2 1 2 3 6 1 2 3 1 3 5 2 1 7 2 3 2 2 4 4 7 2 2 4 4 6 2 2 3 3 2 1 1 2 2 2 3 3 6 2 1 2 2 5 1 1 6 1 4 5 
15 2 1 7 3 6 1 1 7 2 3 5 4 6 1 1 5 2 1 4 4 3 1 1 6 2 1 3 2 4 2 2 6 3 5 2 3 2 4 2 1 1 4 1 2 3 2 1 2 4 3 2 1 3 4 1 2 1 4 4 3 2 3 5 4 2 
0 3 1 2 6 
1 0 3 3 4 5 
1 0 3 3 4 5 
2 2 1 3 7 8 10 
2 1 2 3 7 8 9 
2 1 2 3 8 9 11 
1 0 2 7 9 
3 3 6 4 2 11 13 
3 4 3 5 3 12 13 14 
3 5 6 4 3 10 13 14 
2 9 3 1 12 
2 5 7 2 12 14 
3 10 11 8 0 
3 7 9 8 0 
3 9 11 8 0 
0 3 16 18 20 
1 15 3 19 21 23 
0 3 18 20 21 
2 15 17 3 19 24 25 
2 18 16 1 26 
2 15 17 3 23 24 26 
2 17 16 3 24 25 27 
0 2 23 26 
3 16 20 22 2 25 27 
3 18 20 21 2 28 29 
3 23 18 21 2 28 29 
3 20 22 19 2 27 28 
3 21 26 23 1 29 
3 24 26 25 0 
3 27 24 25 0 
0 2 31 37 
1 30 3 33 34 35 
0 3 33 34 35 
2 32 31 3 38 39 40 
2 31 32 2 38 42 
2 31 32 3 38 39 40 
0 2 37 40 
2 30 36 1 39 
3 34 35 33 2 41 43 
3 35 33 37 2 41 42 
3 33 36 35 2 41 42 
3 39 40 38 1 44 
3 34 39 40 1 43 
2 42 38 1 44 
2 43 41 0 
0 3 46 50 53 
1 45 3 48 52 58 
0 3 48 50 52 
2 46 47 2 51 54 
0 3 50 52 53 
3 49 47 45 3 51 55 58 
2 48 50 2 56 57 
3 47 49 46 3 54 55 57 
2 49 45 3 54 55 57 
3 48 52 53 1 56 
3 52 50 53 1 56 
3 54 55 51 1 59 
3 52 51 53 1 59 
2 50 46 1 59 
3 56 57 58 0 
0 3 61 62 63 
1 60 3 64 66 67 
1 60 3 64 66 68 
1 60 3 64 66 67 
3 62 61 63 2 69 74 
0 1 67 
3 62 63 61 3 69 71 72 
3 61 63 65 2 68 71 
2 62 67 2 69 72 
3 68 66 64 1 73 
0 2 71 72 
3 66 67 70 2 73 74 
3 70 66 68 2 73 74 
3 71 69 72 0 
3 64 72 71 0 
0 3 77 78 80 
0 3 77 78 80 
2 75 76 3 79 81 87 
2 76 75 2 79 81 
2 77 78 2 83 85 
2 76 75 2 81 87 
3 78 77 80 2 83 85 
0 3 83 85 87 
3 81 82 79 2 84 88 
1 83 2 86 89 
3 81 79 82 3 86 88 89 
2 84 85 0 
3 82 80 77 2 88 89 
3 83 87 85 0 
3 87 85 84 0 
0 3 91 92 99 
1 90 3 94 96 97 
1 90 3 94 97 102 
0 3 94 96 99 
3 92 91 93 3 98 100 103 
0 3 96 97 99 
3 93 91 95 2 98 102 
3 91 92 95 3 98 100 103 
3 94 96 97 2 101 104 
3 90 95 93 2 100 102 
3 94 99 97 2 101 104 
2 100 98 0 
3 96 92 99 1 103 
3 102 97 94 1 104 
3 98 103 100 0 
0 3 106 115 116 
1 105 2 107 108 
1 106 3 109 111 112 
1 106 3 109 111 112 
2 108 107 2 110 117 
1 109 3 113 114 118 
2 107 108 3 113 114 118 
2 107 108 2 113 114 
3 110 112 111 0 
3 110 111 112 1 119 
1 105 2 117 119 
1 105 2 117 119 
3 116 109 115 1 118 
3 117 111 110 0 
3 114 116 115 0 
